; ./prepared/eldarica-misc/./LIA/reve/009-horn_000.smt2
(set-logic HORN)


(declare-fun |INV1| ( Int Int Int Int Int Int ) Bool)

(assert
  (forall ( (A Int) (B Int) (C Int) (D Int) (E Int) (F Int) (G Int) (H Int) (I Int) (v_9 Int) ) 
    (=>
      (and
        (INV1 A B C D F G)
        (and (not (= F 0)) (= E 0) (not (>= A 1)) (<= C 9) (= H I) (= v_9 D))
      )
      (INV1 A B C D E v_9)
    )
  )
)
(assert
  (forall ( (A Int) (B Int) (C Int) (D Int) (E Int) (F Int) (G Int) (H Int) (I Int) (J Int) ) 
    (=>
      (and
        (INV1 A B C D G H)
        (and (not (= G 0))
     (= E 0)
     (= D (+ (- 2) F))
     (not (>= A 1))
     (not (<= C 99))
     (<= C 999)
     (not (<= C 9))
     (= I J))
      )
      (INV1 A B C D E F)
    )
  )
)
(assert
  (forall ( (A Int) (B Int) (C Int) (D Int) (E Int) (F Int) (G Int) (H Int) (I Int) (J Int) ) 
    (=>
      (and
        (INV1 A B H G E F)
        (and (= G (+ (- 4) D))
     (not (= E 0))
     (>= (+ (* 10000 C) (* (- 1) H)) (- 9999))
     (>= (+ H (* (- 10000) C)) 0)
     (not (>= A 1))
     (not (<= H 9999))
     (not (<= H 99))
     (not (<= H 999))
     (not (<= H 9))
     (= I J))
      )
      (INV1 A B C D E F)
    )
  )
)
(assert
  (forall ( (A Int) (B Int) (C Int) (D Int) (E Int) (F Int) (G Int) (H Int) (I Int) (J Int) ) 
    (=>
      (and
        (INV1 A B C D G H)
        (and (not (= G 0))
     (= E 0)
     (= D (+ (- 3) F))
     (not (>= A 1))
     (<= C 9999)
     (not (<= C 99))
     (not (<= C 999))
     (not (<= C 9))
     (= I J))
      )
      (INV1 A B C D E F)
    )
  )
)
(assert
  (forall ( (A Int) (B Int) (C Int) (D Int) (E Int) (F Int) (G Int) (H Int) (I Int) (J Int) ) 
    (=>
      (and
        (INV1 A B C D G H)
        (and (not (= G 0))
     (= E 0)
     (= D (+ (- 1) F))
     (not (>= A 1))
     (<= C 99)
     (not (<= C 9))
     (= I J))
      )
      (INV1 A B C D E F)
    )
  )
)
(assert
  (forall ( (A Int) (B Int) (C Int) (D Int) (E Int) (F Int) (G Int) (H Int) (I Int) (J Int) (K Int) (L Int) (v_12 Int) ) 
    (=>
      (and
        (INV1 G F C D I J)
        (and (not (= I 0))
     (= F (+ (- 1) B))
     (= E 0)
     (>= (+ (* 10 A) (* (- 1) G)) (- 9))
     (>= (+ (* 10 H) (* (- 1) G)) (- 9))
     (>= (+ G (* (- 10) A)) 0)
     (>= (+ G (* (- 10) H)) 0)
     (not (>= H 1))
     (>= G 1)
     (<= C 9)
     (= K L)
     (= v_12 D))
      )
      (INV1 A B C D E v_12)
    )
  )
)
(assert
  (forall ( (A Int) (B Int) (C Int) (D Int) (E Int) (F Int) (G Int) (H Int) (I Int) (J Int) (K Int) (L Int) (M Int) (N Int) (O Int) (P Int) (Q Int) (R Int) (S Int) (T Int) (U Int) (V Int) (W Int) (X Int) (Y Int) (Z Int) (A1 Int) (B1 Int) (v_28 Int) ) 
    (=>
      (and
        (INV1 I F C D Y Z)
        (and (= E 0)
     (= A1 B1)
     (not (= Y 0))
     (>= (+ (* 10 P) (* (- 1) I)) (- 9))
     (>= (+ (* 10 O) (* (- 1) P)) (- 9))
     (>= (+ (* 10 N) (* (- 1) O)) (- 9))
     (>= (+ (* 10 M) (* (- 1) I)) (- 9))
     (>= (+ (* 10 L) (* (- 1) I)) (- 9))
     (>= (+ (* 10 K) (* (- 1) L)) (- 9))
     (>= (+ (* 10 J) (* (- 1) I)) (- 9))
     (>= (+ (* 10 H) (* (- 1) I)) (- 9))
     (>= (+ (* 10 G) (* (- 1) H)) (- 9))
     (>= (+ (* 10 A) (* (- 1) G)) (- 9))
     (>= (+ (* 10 R) (* (- 1) S)) (- 9))
     (>= (+ (* 10 Q) (* (- 1) I)) (- 9))
     (>= (+ (* 10 S) (* (- 1) I)) (- 9))
     (>= (+ (* 10 X) (* (- 1) I)) (- 9))
     (>= (+ (* 10 W) (* (- 1) I)) (- 9))
     (>= (+ (* 10 V) (* (- 1) I)) (- 9))
     (>= (+ (* 10 U) (* (- 1) V)) (- 9))
     (>= (+ (* 10 T) (* (- 1) I)) (- 9))
     (>= (+ M (* (- 10) K)) 0)
     (>= (+ K (* (- 10) A)) 0)
     (>= (+ J (* (- 10) G)) 0)
     (>= (+ I (* (- 10) P)) 0)
     (>= (+ I (* (- 10) M)) 0)
     (>= (+ I (* (- 10) L)) 0)
     (>= (+ I (* (- 10) J)) 0)
     (>= (+ I (* (- 10) H)) 0)
     (>= (+ I (* (- 10) Q)) 0)
     (>= (+ I (* (- 10) S)) 0)
     (>= (+ I (* (- 10) X)) 0)
     (>= (+ I (* (- 10) W)) 0)
     (>= (+ I (* (- 10) V)) 0)
     (>= (+ I (* (- 10) T)) 0)
     (>= (+ R (* (- 10) N)) 0)
     (>= (+ Q (* (- 10) O)) 0)
     (>= (+ W (* (- 10) U)) 0)
     (>= (+ T (* (- 10) R)) 0)
     (not (>= N 1))
     (>= I 1)
     (>= X 1)
     (>= U 1)
     (<= C 9)
     (= F (+ (- 3) B))
     (= v_28 D))
      )
      (INV1 A B C D E v_28)
    )
  )
)
(assert
  (forall ( (A Int) (B Int) (C Int) (D Int) (E Int) (F Int) (G Int) (H Int) (I Int) (J Int) (K Int) (L Int) (M Int) (N Int) (O Int) (P Int) (Q Int) (R Int) (S Int) (T Int) (U Int) (V Int) (W Int) (X Int) (Y Int) (Z Int) (A1 Int) (B1 Int) (C1 Int) (D1 Int) (E1 Int) (F1 Int) (G1 Int) (H1 Int) (I1 Int) (J1 Int) (v_36 Int) ) 
    (=>
      (and
        (INV1 J F C D G1 H1)
        (and (= E 0)
     (= I1 J1)
     (not (= G1 0))
     (>= (+ (* 10 H) (* (- 1) I)) (- 9))
     (>= (+ (* 10 G) (* (- 1) H)) (- 9))
     (>= (+ (* 10 A) (* (- 1) G)) (- 9))
     (>= (+ (* 10 X) (* (- 1) J)) (- 9))
     (>= (+ (* 10 W) (* (- 1) X)) (- 9))
     (>= (+ (* 10 V) (* (- 1) W)) (- 9))
     (>= (+ (* 10 U) (* (- 1) J)) (- 9))
     (>= (+ (* 10 T) (* (- 1) J)) (- 9))
     (>= (+ (* 10 S) (* (- 1) T)) (- 9))
     (>= (+ (* 10 R) (* (- 1) J)) (- 9))
     (>= (+ (* 10 Q) (* (- 1) J)) (- 9))
     (>= (+ (* 10 P) (* (- 1) Q)) (- 9))
     (>= (+ (* 10 O) (* (- 1) P)) (- 9))
     (>= (+ (* 10 N) (* (- 1) J)) (- 9))
     (>= (+ (* 10 M) (* (- 1) J)) (- 9))
     (>= (+ (* 10 L) (* (- 1) M)) (- 9))
     (>= (+ (* 10 K) (* (- 1) J)) (- 9))
     (>= (+ (* 10 I) (* (- 1) J)) (- 9))
     (>= (+ (* 10 Z) (* (- 1) A1)) (- 9))
     (>= (+ (* 10 Y) (* (- 1) J)) (- 9))
     (>= (+ (* 10 A1) (* (- 1) J)) (- 9))
     (>= (+ (* 10 F1) (* (- 1) J)) (- 9))
     (>= (+ (* 10 E1) (* (- 1) J)) (- 9))
     (>= (+ (* 10 D1) (* (- 1) J)) (- 9))
     (>= (+ (* 10 C1) (* (- 1) D1)) (- 9))
     (>= (+ (* 10 B1) (* (- 1) J)) (- 9))
     (>= (+ U (* (- 10) S)) 0)
     (>= (+ S (* (- 10) O)) 0)
     (>= (+ R (* (- 10) P)) 0)
     (>= (+ O (* (- 10) A)) 0)
     (>= (+ N (* (- 10) L)) 0)
     (>= (+ L (* (- 10) G)) 0)
     (>= (+ K (* (- 10) H)) 0)
     (>= (+ J (* (- 10) X)) 0)
     (>= (+ J (* (- 10) U)) 0)
     (>= (+ J (* (- 10) T)) 0)
     (>= (+ J (* (- 10) R)) 0)
     (>= (+ J (* (- 10) Q)) 0)
     (>= (+ J (* (- 10) N)) 0)
     (>= (+ J (* (- 10) M)) 0)
     (>= (+ J (* (- 10) K)) 0)
     (>= (+ J (* (- 10) I)) 0)
     (>= (+ J (* (- 10) Y)) 0)
     (>= (+ J (* (- 10) A1)) 0)
     (>= (+ J (* (- 10) F1)) 0)
     (>= (+ J (* (- 10) E1)) 0)
     (>= (+ J (* (- 10) D1)) 0)
     (>= (+ J (* (- 10) B1)) 0)
     (>= (+ Z (* (- 10) V)) 0)
     (>= (+ Y (* (- 10) W)) 0)
     (>= (+ E1 (* (- 10) C1)) 0)
     (>= (+ B1 (* (- 10) Z)) 0)
     (>= V 1)
     (>= J 1)
     (>= F1 1)
     (>= C1 1)
     (<= C 9)
     (= F (+ (- 4) B))
     (= v_36 D))
      )
      (INV1 A B C D E v_36)
    )
  )
)
(assert
  (forall ( (A Int) (B Int) (C Int) (D Int) (E Int) (F Int) (G Int) (H Int) (I Int) (J Int) (K Int) (L Int) (M Int) (N Int) (O Int) (P Int) (Q Int) (v_17 Int) ) 
    (=>
      (and
        (INV1 H F C D N O)
        (and (= F (+ (- 2) B))
     (= P Q)
     (not (= N 0))
     (>= (+ (* 10 A) (* (- 1) G)) (- 9))
     (>= (+ (* 10 G) (* (- 1) H)) (- 9))
     (>= (+ (* 10 M) (* (- 1) H)) (- 9))
     (>= (+ (* 10 L) (* (- 1) H)) (- 9))
     (>= (+ (* 10 K) (* (- 1) H)) (- 9))
     (>= (+ (* 10 J) (* (- 1) K)) (- 9))
     (>= (+ (* 10 I) (* (- 1) H)) (- 9))
     (>= (+ H (* (- 10) G)) 0)
     (>= (+ H (* (- 10) M)) 0)
     (>= (+ H (* (- 10) L)) 0)
     (>= (+ H (* (- 10) K)) 0)
     (>= (+ H (* (- 10) I)) 0)
     (>= (+ L (* (- 10) J)) 0)
     (>= (+ I (* (- 10) A)) 0)
     (>= H 1)
     (>= M 1)
     (not (>= J 1))
     (<= C 9)
     (= E 0)
     (= v_17 D))
      )
      (INV1 A B C D E v_17)
    )
  )
)
(assert
  (forall ( (A Int) (B Int) (C Int) (D Int) (E Int) (F Int) (G Int) (H Int) (I Int) (J Int) (K Int) (L Int) (M Int) ) 
    (=>
      (and
        (INV1 H G C D J K)
        (and (= L M)
     (not (= J 0))
     (= G (+ (- 1) B))
     (= E 0)
     (>= (+ (* 10 A) (* (- 1) H)) (- 9))
     (>= (+ (* 10 I) (* (- 1) H)) (- 9))
     (>= (+ H (* (- 10) A)) 0)
     (>= (+ H (* (- 10) I)) 0)
     (not (>= I 1))
     (>= H 1)
     (not (<= C 99))
     (<= C 999)
     (not (<= C 9))
     (= D (+ (- 2) F)))
      )
      (INV1 A B C D E F)
    )
  )
)
(assert
  (forall ( (A Int) (B Int) (C Int) (D Int) (E Int) (F Int) (G Int) (H Int) (I Int) (J Int) (K Int) (L Int) (M Int) (N Int) (O Int) (P Int) (Q Int) (R Int) (S Int) (T Int) (U Int) (V Int) (W Int) (X Int) (Y Int) (Z Int) (A1 Int) (B1 Int) (C1 Int) ) 
    (=>
      (and
        (INV1 J G C D Z A1)
        (and (= E 0)
     (= D (+ (- 2) F))
     (= B1 C1)
     (not (= Z 0))
     (>= (+ (* 10 A) (* (- 1) H)) (- 9))
     (>= (+ (* 10 Q) (* (- 1) J)) (- 9))
     (>= (+ (* 10 P) (* (- 1) Q)) (- 9))
     (>= (+ (* 10 O) (* (- 1) P)) (- 9))
     (>= (+ (* 10 N) (* (- 1) J)) (- 9))
     (>= (+ (* 10 M) (* (- 1) J)) (- 9))
     (>= (+ (* 10 L) (* (- 1) M)) (- 9))
     (>= (+ (* 10 K) (* (- 1) J)) (- 9))
     (>= (+ (* 10 I) (* (- 1) J)) (- 9))
     (>= (+ (* 10 H) (* (- 1) I)) (- 9))
     (>= (+ (* 10 S) (* (- 1) T)) (- 9))
     (>= (+ (* 10 R) (* (- 1) J)) (- 9))
     (>= (+ (* 10 T) (* (- 1) J)) (- 9))
     (>= (+ (* 10 Y) (* (- 1) J)) (- 9))
     (>= (+ (* 10 X) (* (- 1) J)) (- 9))
     (>= (+ (* 10 W) (* (- 1) J)) (- 9))
     (>= (+ (* 10 V) (* (- 1) W)) (- 9))
     (>= (+ (* 10 U) (* (- 1) J)) (- 9))
     (>= (+ N (* (- 10) L)) 0)
     (>= (+ L (* (- 10) A)) 0)
     (>= (+ K (* (- 10) H)) 0)
     (>= (+ J (* (- 10) Q)) 0)
     (>= (+ J (* (- 10) N)) 0)
     (>= (+ J (* (- 10) M)) 0)
     (>= (+ J (* (- 10) K)) 0)
     (>= (+ J (* (- 10) I)) 0)
     (>= (+ J (* (- 10) R)) 0)
     (>= (+ J (* (- 10) T)) 0)
     (>= (+ J (* (- 10) Y)) 0)
     (>= (+ J (* (- 10) X)) 0)
     (>= (+ J (* (- 10) W)) 0)
     (>= (+ J (* (- 10) U)) 0)
     (>= (+ S (* (- 10) O)) 0)
     (>= (+ R (* (- 10) P)) 0)
     (>= (+ X (* (- 10) V)) 0)
     (>= (+ U (* (- 10) S)) 0)
     (not (>= O 1))
     (>= J 1)
     (>= Y 1)
     (>= V 1)
     (not (<= C 99))
     (<= C 999)
     (not (<= C 9))
     (= G (+ (- 3) B)))
      )
      (INV1 A B C D E F)
    )
  )
)
(assert
  (forall ( (A Int) (B Int) (C Int) (D Int) (E Int) (F Int) (G Int) (H Int) (I Int) (J Int) (K Int) (L Int) (M Int) (N Int) (O Int) (P Int) (Q Int) (R Int) (S Int) (T Int) (U Int) (V Int) (W Int) (X Int) (Y Int) (Z Int) (A1 Int) (B1 Int) (C1 Int) (D1 Int) (E1 Int) (F1 Int) (G1 Int) (H1 Int) (I1 Int) (J1 Int) (K1 Int) ) 
    (=>
      (and
        (INV1 K G C D H1 I1)
        (and (= E 0)
     (= D (+ (- 2) F))
     (= J1 K1)
     (not (= H1 0))
     (>= (+ (* 10 A) (* (- 1) H)) (- 9))
     (>= (+ (* 10 I) (* (- 1) J)) (- 9))
     (>= (+ (* 10 H) (* (- 1) I)) (- 9))
     (>= (+ (* 10 Y) (* (- 1) K)) (- 9))
     (>= (+ (* 10 X) (* (- 1) Y)) (- 9))
     (>= (+ (* 10 W) (* (- 1) X)) (- 9))
     (>= (+ (* 10 V) (* (- 1) K)) (- 9))
     (>= (+ (* 10 U) (* (- 1) K)) (- 9))
     (>= (+ (* 10 T) (* (- 1) U)) (- 9))
     (>= (+ (* 10 S) (* (- 1) K)) (- 9))
     (>= (+ (* 10 R) (* (- 1) K)) (- 9))
     (>= (+ (* 10 Q) (* (- 1) R)) (- 9))
     (>= (+ (* 10 P) (* (- 1) Q)) (- 9))
     (>= (+ (* 10 O) (* (- 1) K)) (- 9))
     (>= (+ (* 10 N) (* (- 1) K)) (- 9))
     (>= (+ (* 10 M) (* (- 1) N)) (- 9))
     (>= (+ (* 10 L) (* (- 1) K)) (- 9))
     (>= (+ (* 10 J) (* (- 1) K)) (- 9))
     (>= (+ (* 10 A1) (* (- 1) B1)) (- 9))
     (>= (+ (* 10 Z) (* (- 1) K)) (- 9))
     (>= (+ (* 10 B1) (* (- 1) K)) (- 9))
     (>= (+ (* 10 G1) (* (- 1) K)) (- 9))
     (>= (+ (* 10 F1) (* (- 1) K)) (- 9))
     (>= (+ (* 10 E1) (* (- 1) K)) (- 9))
     (>= (+ (* 10 D1) (* (- 1) E1)) (- 9))
     (>= (+ (* 10 C1) (* (- 1) K)) (- 9))
     (>= (+ V (* (- 10) T)) 0)
     (>= (+ T (* (- 10) P)) 0)
     (>= (+ S (* (- 10) Q)) 0)
     (>= (+ P (* (- 10) A)) 0)
     (>= (+ O (* (- 10) M)) 0)
     (>= (+ M (* (- 10) H)) 0)
     (>= (+ L (* (- 10) I)) 0)
     (>= (+ K (* (- 10) Y)) 0)
     (>= (+ K (* (- 10) V)) 0)
     (>= (+ K (* (- 10) U)) 0)
     (>= (+ K (* (- 10) S)) 0)
     (>= (+ K (* (- 10) R)) 0)
     (>= (+ K (* (- 10) O)) 0)
     (>= (+ K (* (- 10) N)) 0)
     (>= (+ K (* (- 10) L)) 0)
     (>= (+ K (* (- 10) J)) 0)
     (>= (+ K (* (- 10) Z)) 0)
     (>= (+ K (* (- 10) B1)) 0)
     (>= (+ K (* (- 10) G1)) 0)
     (>= (+ K (* (- 10) F1)) 0)
     (>= (+ K (* (- 10) E1)) 0)
     (>= (+ K (* (- 10) C1)) 0)
     (>= (+ A1 (* (- 10) W)) 0)
     (>= (+ Z (* (- 10) X)) 0)
     (>= (+ F1 (* (- 10) D1)) 0)
     (>= (+ C1 (* (- 10) A1)) 0)
     (>= W 1)
     (>= K 1)
     (>= G1 1)
     (>= D1 1)
     (not (<= C 99))
     (<= C 999)
     (not (<= C 9))
     (= G (+ (- 4) B)))
      )
      (INV1 A B C D E F)
    )
  )
)
(assert
  (forall ( (A Int) (B Int) (C Int) (D Int) (E Int) (F Int) (G Int) (H Int) (I Int) (J Int) (K Int) (L Int) (M Int) (N Int) (O Int) (P Int) (Q Int) (R Int) ) 
    (=>
      (and
        (INV1 I G C D O P)
        (and (= D (+ (- 2) F))
     (= G (+ (- 2) B))
     (= Q R)
     (not (= O 0))
     (>= (+ (* 10 A) (* (- 1) H)) (- 9))
     (>= (+ (* 10 H) (* (- 1) I)) (- 9))
     (>= (+ (* 10 N) (* (- 1) I)) (- 9))
     (>= (+ (* 10 M) (* (- 1) I)) (- 9))
     (>= (+ (* 10 L) (* (- 1) I)) (- 9))
     (>= (+ (* 10 K) (* (- 1) L)) (- 9))
     (>= (+ (* 10 J) (* (- 1) I)) (- 9))
     (>= (+ I (* (- 10) H)) 0)
     (>= (+ I (* (- 10) N)) 0)
     (>= (+ I (* (- 10) M)) 0)
     (>= (+ I (* (- 10) L)) 0)
     (>= (+ I (* (- 10) J)) 0)
     (>= (+ M (* (- 10) K)) 0)
     (>= (+ J (* (- 10) A)) 0)
     (>= I 1)
     (>= N 1)
     (not (>= K 1))
     (not (<= C 99))
     (<= C 999)
     (not (<= C 9))
     (= E 0))
      )
      (INV1 A B C D E F)
    )
  )
)
(assert
  (forall ( (A Int) (B Int) (C Int) (D Int) (E Int) (F Int) (G Int) (H Int) (I Int) (J Int) (K Int) (L Int) (M Int) (N Int) (O Int) (P Int) (Q Int) (R Int) ) 
    (=>
      (and
        (INV1 K G I H E F)
        (and (= H (+ (- 4) D))
     (= G (+ (- 2) B))
     (= Q R)
     (>= (+ (* 10000 C) (* (- 1) I)) (- 9999))
     (>= (+ (* 10 A) (* (- 1) J)) (- 9))
     (>= (+ (* 10 P) (* (- 1) K)) (- 9))
     (>= (+ (* 10 O) (* (- 1) K)) (- 9))
     (>= (+ (* 10 N) (* (- 1) K)) (- 9))
     (>= (+ (* 10 M) (* (- 1) N)) (- 9))
     (>= (+ (* 10 L) (* (- 1) K)) (- 9))
     (>= (+ (* 10 J) (* (- 1) K)) (- 9))
     (>= (+ I (* (- 10000) C)) 0)
     (>= (+ O (* (- 10) M)) 0)
     (>= (+ L (* (- 10) A)) 0)
     (>= (+ K (* (- 10) P)) 0)
     (>= (+ K (* (- 10) O)) 0)
     (>= (+ K (* (- 10) N)) 0)
     (>= (+ K (* (- 10) L)) 0)
     (>= (+ K (* (- 10) J)) 0)
     (>= P 1)
     (not (>= M 1))
     (>= K 1)
     (not (<= I 9999))
     (not (<= I 99))
     (not (<= I 999))
     (not (<= I 9))
     (not (= E 0)))
      )
      (INV1 A B C D E F)
    )
  )
)
(assert
  (forall ( (A Int) (B Int) (C Int) (D Int) (E Int) (F Int) (G Int) (H Int) (I Int) (J Int) (K Int) (L Int) (M Int) (N Int) (O Int) (P Int) (Q Int) (R Int) (S Int) (T Int) (U Int) (V Int) (W Int) (X Int) (Y Int) (Z Int) (A1 Int) (B1 Int) (C1 Int) (D1 Int) (E1 Int) (F1 Int) (G1 Int) (H1 Int) (I1 Int) (J1 Int) (K1 Int) ) 
    (=>
      (and
        (INV1 M G I H E F)
        (and (= G (+ (- 4) B))
     (not (= E 0))
     (= J1 K1)
     (>= (+ (* 10000 C) (* (- 1) I)) (- 9999))
     (>= (+ (* 10 A) (* (- 1) J)) (- 9))
     (>= (+ (* 10 Y) (* (- 1) Z)) (- 9))
     (>= (+ (* 10 X) (* (- 1) M)) (- 9))
     (>= (+ (* 10 W) (* (- 1) M)) (- 9))
     (>= (+ (* 10 V) (* (- 1) W)) (- 9))
     (>= (+ (* 10 U) (* (- 1) M)) (- 9))
     (>= (+ (* 10 T) (* (- 1) M)) (- 9))
     (>= (+ (* 10 S) (* (- 1) T)) (- 9))
     (>= (+ (* 10 R) (* (- 1) S)) (- 9))
     (>= (+ (* 10 Q) (* (- 1) M)) (- 9))
     (>= (+ (* 10 P) (* (- 1) M)) (- 9))
     (>= (+ (* 10 O) (* (- 1) P)) (- 9))
     (>= (+ (* 10 N) (* (- 1) M)) (- 9))
     (>= (+ (* 10 L) (* (- 1) M)) (- 9))
     (>= (+ (* 10 K) (* (- 1) L)) (- 9))
     (>= (+ (* 10 J) (* (- 1) K)) (- 9))
     (>= (+ (* 10 A1) (* (- 1) M)) (- 9))
     (>= (+ (* 10 Z) (* (- 1) A1)) (- 9))
     (>= (+ (* 10 B1) (* (- 1) M)) (- 9))
     (>= (+ (* 10 I1) (* (- 1) M)) (- 9))
     (>= (+ (* 10 H1) (* (- 1) M)) (- 9))
     (>= (+ (* 10 G1) (* (- 1) M)) (- 9))
     (>= (+ (* 10 F1) (* (- 1) G1)) (- 9))
     (>= (+ (* 10 E1) (* (- 1) M)) (- 9))
     (>= (+ (* 10 D1) (* (- 1) M)) (- 9))
     (>= (+ (* 10 C1) (* (- 1) D1)) (- 9))
     (>= (+ I (* (- 10000) C)) 0)
     (>= (+ X (* (- 10) V)) 0)
     (>= (+ V (* (- 10) R)) 0)
     (>= (+ U (* (- 10) S)) 0)
     (>= (+ R (* (- 10) A)) 0)
     (>= (+ Q (* (- 10) O)) 0)
     (>= (+ O (* (- 10) J)) 0)
     (>= (+ N (* (- 10) K)) 0)
     (>= (+ M (* (- 10) X)) 0)
     (>= (+ M (* (- 10) W)) 0)
     (>= (+ M (* (- 10) U)) 0)
     (>= (+ M (* (- 10) T)) 0)
     (>= (+ M (* (- 10) Q)) 0)
     (>= (+ M (* (- 10) P)) 0)
     (>= (+ M (* (- 10) N)) 0)
     (>= (+ M (* (- 10) L)) 0)
     (>= (+ M (* (- 10) A1)) 0)
     (>= (+ M (* (- 10) B1)) 0)
     (>= (+ M (* (- 10) I1)) 0)
     (>= (+ M (* (- 10) H1)) 0)
     (>= (+ M (* (- 10) G1)) 0)
     (>= (+ M (* (- 10) E1)) 0)
     (>= (+ M (* (- 10) D1)) 0)
     (>= (+ B1 (* (- 10) Z)) 0)
     (>= (+ H1 (* (- 10) F1)) 0)
     (>= (+ E1 (* (- 10) C1)) 0)
     (>= (+ C1 (* (- 10) Y)) 0)
     (>= Y 1)
     (>= M 1)
     (>= I1 1)
     (>= F1 1)
     (not (<= I 9999))
     (not (<= I 99))
     (not (<= I 999))
     (not (<= I 9))
     (= H (+ (- 4) D)))
      )
      (INV1 A B C D E F)
    )
  )
)
(assert
  (forall ( (A Int) (B Int) (C Int) (D Int) (E Int) (F Int) (G Int) (H Int) (I Int) (J Int) (K Int) (L Int) (M Int) (N Int) (O Int) (P Int) (Q Int) (R Int) (S Int) (T Int) (U Int) (V Int) (W Int) (X Int) (Y Int) (Z Int) (A1 Int) (B1 Int) (C1 Int) ) 
    (=>
      (and
        (INV1 L G I H E F)
        (and (= G (+ (- 3) B))
     (not (= E 0))
     (= B1 C1)
     (>= (+ (* 10000 C) (* (- 1) I)) (- 9999))
     (>= (+ (* 10 A) (* (- 1) J)) (- 9))
     (>= (+ (* 10 Q) (* (- 1) R)) (- 9))
     (>= (+ (* 10 P) (* (- 1) L)) (- 9))
     (>= (+ (* 10 O) (* (- 1) L)) (- 9))
     (>= (+ (* 10 N) (* (- 1) O)) (- 9))
     (>= (+ (* 10 M) (* (- 1) L)) (- 9))
     (>= (+ (* 10 K) (* (- 1) L)) (- 9))
     (>= (+ (* 10 J) (* (- 1) K)) (- 9))
     (>= (+ (* 10 S) (* (- 1) L)) (- 9))
     (>= (+ (* 10 R) (* (- 1) S)) (- 9))
     (>= (+ (* 10 T) (* (- 1) L)) (- 9))
     (>= (+ (* 10 A1) (* (- 1) L)) (- 9))
     (>= (+ (* 10 Z) (* (- 1) L)) (- 9))
     (>= (+ (* 10 Y) (* (- 1) L)) (- 9))
     (>= (+ (* 10 X) (* (- 1) Y)) (- 9))
     (>= (+ (* 10 W) (* (- 1) L)) (- 9))
     (>= (+ (* 10 V) (* (- 1) L)) (- 9))
     (>= (+ (* 10 U) (* (- 1) V)) (- 9))
     (>= (+ P (* (- 10) N)) 0)
     (>= (+ N (* (- 10) A)) 0)
     (>= (+ M (* (- 10) J)) 0)
     (>= (+ L (* (- 10) P)) 0)
     (>= (+ L (* (- 10) O)) 0)
     (>= (+ L (* (- 10) M)) 0)
     (>= (+ L (* (- 10) K)) 0)
     (>= (+ L (* (- 10) S)) 0)
     (>= (+ L (* (- 10) T)) 0)
     (>= (+ L (* (- 10) A1)) 0)
     (>= (+ L (* (- 10) Z)) 0)
     (>= (+ L (* (- 10) Y)) 0)
     (>= (+ L (* (- 10) W)) 0)
     (>= (+ L (* (- 10) V)) 0)
     (>= (+ I (* (- 10000) C)) 0)
     (>= (+ T (* (- 10) R)) 0)
     (>= (+ Z (* (- 10) X)) 0)
     (>= (+ W (* (- 10) U)) 0)
     (>= (+ U (* (- 10) Q)) 0)
     (not (>= Q 1))
     (>= L 1)
     (>= A1 1)
     (>= X 1)
     (not (<= I 9999))
     (not (<= I 99))
     (not (<= I 999))
     (not (<= I 9))
     (= H (+ (- 4) D)))
      )
      (INV1 A B C D E F)
    )
  )
)
(assert
  (forall ( (A Int) (B Int) (C Int) (D Int) (E Int) (F Int) (G Int) (H Int) (I Int) (J Int) (K Int) (L Int) (M Int) ) 
    (=>
      (and
        (INV1 J G I H E F)
        (and (= H (+ (- 4) D))
     (= G (+ (- 1) B))
     (not (= E 0))
     (>= (+ (* 10000 C) (* (- 1) I)) (- 9999))
     (>= (+ (* 10 A) (* (- 1) J)) (- 9))
     (>= (+ (* 10 K) (* (- 1) J)) (- 9))
     (>= (+ J (* (- 10) A)) 0)
     (>= (+ J (* (- 10) K)) 0)
     (>= (+ I (* (- 10000) C)) 0)
     (not (>= K 1))
     (>= J 1)
     (not (<= I 9999))
     (not (<= I 99))
     (not (<= I 999))
     (not (<= I 9))
     (= L M))
      )
      (INV1 A B C D E F)
    )
  )
)
(assert
  (forall ( (A Int) (B Int) (C Int) (D Int) (E Int) (F Int) (G Int) (H Int) (I Int) (J Int) (K Int) (L Int) (M Int) (N Int) (O Int) (P Int) (Q Int) (R Int) ) 
    (=>
      (and
        (INV1 I G C D O P)
        (and (= D (+ (- 3) F))
     (= G (+ (- 2) B))
     (= Q R)
     (not (= O 0))
     (>= (+ (* 10 A) (* (- 1) H)) (- 9))
     (>= (+ (* 10 H) (* (- 1) I)) (- 9))
     (>= (+ (* 10 N) (* (- 1) I)) (- 9))
     (>= (+ (* 10 M) (* (- 1) I)) (- 9))
     (>= (+ (* 10 L) (* (- 1) I)) (- 9))
     (>= (+ (* 10 K) (* (- 1) L)) (- 9))
     (>= (+ (* 10 J) (* (- 1) I)) (- 9))
     (>= (+ I (* (- 10) H)) 0)
     (>= (+ I (* (- 10) N)) 0)
     (>= (+ I (* (- 10) M)) 0)
     (>= (+ I (* (- 10) L)) 0)
     (>= (+ I (* (- 10) J)) 0)
     (>= (+ M (* (- 10) K)) 0)
     (>= (+ J (* (- 10) A)) 0)
     (>= I 1)
     (>= N 1)
     (not (>= K 1))
     (<= C 9999)
     (not (<= C 99))
     (not (<= C 999))
     (not (<= C 9))
     (= E 0))
      )
      (INV1 A B C D E F)
    )
  )
)
(assert
  (forall ( (A Int) (B Int) (C Int) (D Int) (E Int) (F Int) (G Int) (H Int) (I Int) (J Int) (K Int) (L Int) (M Int) (N Int) (O Int) (P Int) (Q Int) (R Int) (S Int) (T Int) (U Int) (V Int) (W Int) (X Int) (Y Int) (Z Int) (A1 Int) (B1 Int) (C1 Int) (D1 Int) (E1 Int) (F1 Int) (G1 Int) (H1 Int) (I1 Int) (J1 Int) (K1 Int) ) 
    (=>
      (and
        (INV1 K G C D H1 I1)
        (and (= E 0)
     (= D (+ (- 3) F))
     (= J1 K1)
     (not (= H1 0))
     (>= (+ (* 10 A) (* (- 1) H)) (- 9))
     (>= (+ (* 10 I) (* (- 1) J)) (- 9))
     (>= (+ (* 10 H) (* (- 1) I)) (- 9))
     (>= (+ (* 10 Y) (* (- 1) K)) (- 9))
     (>= (+ (* 10 X) (* (- 1) Y)) (- 9))
     (>= (+ (* 10 W) (* (- 1) X)) (- 9))
     (>= (+ (* 10 V) (* (- 1) K)) (- 9))
     (>= (+ (* 10 U) (* (- 1) K)) (- 9))
     (>= (+ (* 10 T) (* (- 1) U)) (- 9))
     (>= (+ (* 10 S) (* (- 1) K)) (- 9))
     (>= (+ (* 10 R) (* (- 1) K)) (- 9))
     (>= (+ (* 10 Q) (* (- 1) R)) (- 9))
     (>= (+ (* 10 P) (* (- 1) Q)) (- 9))
     (>= (+ (* 10 O) (* (- 1) K)) (- 9))
     (>= (+ (* 10 N) (* (- 1) K)) (- 9))
     (>= (+ (* 10 M) (* (- 1) N)) (- 9))
     (>= (+ (* 10 L) (* (- 1) K)) (- 9))
     (>= (+ (* 10 J) (* (- 1) K)) (- 9))
     (>= (+ (* 10 A1) (* (- 1) B1)) (- 9))
     (>= (+ (* 10 Z) (* (- 1) K)) (- 9))
     (>= (+ (* 10 B1) (* (- 1) K)) (- 9))
     (>= (+ (* 10 G1) (* (- 1) K)) (- 9))
     (>= (+ (* 10 F1) (* (- 1) K)) (- 9))
     (>= (+ (* 10 E1) (* (- 1) K)) (- 9))
     (>= (+ (* 10 D1) (* (- 1) E1)) (- 9))
     (>= (+ (* 10 C1) (* (- 1) K)) (- 9))
     (>= (+ V (* (- 10) T)) 0)
     (>= (+ T (* (- 10) P)) 0)
     (>= (+ S (* (- 10) Q)) 0)
     (>= (+ P (* (- 10) A)) 0)
     (>= (+ O (* (- 10) M)) 0)
     (>= (+ M (* (- 10) H)) 0)
     (>= (+ L (* (- 10) I)) 0)
     (>= (+ K (* (- 10) Y)) 0)
     (>= (+ K (* (- 10) V)) 0)
     (>= (+ K (* (- 10) U)) 0)
     (>= (+ K (* (- 10) S)) 0)
     (>= (+ K (* (- 10) R)) 0)
     (>= (+ K (* (- 10) O)) 0)
     (>= (+ K (* (- 10) N)) 0)
     (>= (+ K (* (- 10) L)) 0)
     (>= (+ K (* (- 10) J)) 0)
     (>= (+ K (* (- 10) Z)) 0)
     (>= (+ K (* (- 10) B1)) 0)
     (>= (+ K (* (- 10) G1)) 0)
     (>= (+ K (* (- 10) F1)) 0)
     (>= (+ K (* (- 10) E1)) 0)
     (>= (+ K (* (- 10) C1)) 0)
     (>= (+ A1 (* (- 10) W)) 0)
     (>= (+ Z (* (- 10) X)) 0)
     (>= (+ F1 (* (- 10) D1)) 0)
     (>= (+ C1 (* (- 10) A1)) 0)
     (>= W 1)
     (>= K 1)
     (>= G1 1)
     (>= D1 1)
     (<= C 9999)
     (not (<= C 99))
     (not (<= C 999))
     (not (<= C 9))
     (= G (+ (- 4) B)))
      )
      (INV1 A B C D E F)
    )
  )
)
(assert
  (forall ( (A Int) (B Int) (C Int) (D Int) (E Int) (F Int) (G Int) (H Int) (I Int) (J Int) (K Int) (L Int) (M Int) (N Int) (O Int) (P Int) (Q Int) (R Int) (S Int) (T Int) (U Int) (V Int) (W Int) (X Int) (Y Int) (Z Int) (A1 Int) (B1 Int) (C1 Int) ) 
    (=>
      (and
        (INV1 J G C D Z A1)
        (and (= E 0)
     (= D (+ (- 3) F))
     (= B1 C1)
     (not (= Z 0))
     (>= (+ (* 10 A) (* (- 1) H)) (- 9))
     (>= (+ (* 10 Q) (* (- 1) J)) (- 9))
     (>= (+ (* 10 P) (* (- 1) Q)) (- 9))
     (>= (+ (* 10 O) (* (- 1) P)) (- 9))
     (>= (+ (* 10 N) (* (- 1) J)) (- 9))
     (>= (+ (* 10 M) (* (- 1) J)) (- 9))
     (>= (+ (* 10 L) (* (- 1) M)) (- 9))
     (>= (+ (* 10 K) (* (- 1) J)) (- 9))
     (>= (+ (* 10 I) (* (- 1) J)) (- 9))
     (>= (+ (* 10 H) (* (- 1) I)) (- 9))
     (>= (+ (* 10 S) (* (- 1) T)) (- 9))
     (>= (+ (* 10 R) (* (- 1) J)) (- 9))
     (>= (+ (* 10 T) (* (- 1) J)) (- 9))
     (>= (+ (* 10 Y) (* (- 1) J)) (- 9))
     (>= (+ (* 10 X) (* (- 1) J)) (- 9))
     (>= (+ (* 10 W) (* (- 1) J)) (- 9))
     (>= (+ (* 10 V) (* (- 1) W)) (- 9))
     (>= (+ (* 10 U) (* (- 1) J)) (- 9))
     (>= (+ N (* (- 10) L)) 0)
     (>= (+ L (* (- 10) A)) 0)
     (>= (+ K (* (- 10) H)) 0)
     (>= (+ J (* (- 10) Q)) 0)
     (>= (+ J (* (- 10) N)) 0)
     (>= (+ J (* (- 10) M)) 0)
     (>= (+ J (* (- 10) K)) 0)
     (>= (+ J (* (- 10) I)) 0)
     (>= (+ J (* (- 10) R)) 0)
     (>= (+ J (* (- 10) T)) 0)
     (>= (+ J (* (- 10) Y)) 0)
     (>= (+ J (* (- 10) X)) 0)
     (>= (+ J (* (- 10) W)) 0)
     (>= (+ J (* (- 10) U)) 0)
     (>= (+ S (* (- 10) O)) 0)
     (>= (+ R (* (- 10) P)) 0)
     (>= (+ X (* (- 10) V)) 0)
     (>= (+ U (* (- 10) S)) 0)
     (not (>= O 1))
     (>= J 1)
     (>= Y 1)
     (>= V 1)
     (<= C 9999)
     (not (<= C 99))
     (not (<= C 999))
     (not (<= C 9))
     (= G (+ (- 3) B)))
      )
      (INV1 A B C D E F)
    )
  )
)
(assert
  (forall ( (A Int) (B Int) (C Int) (D Int) (E Int) (F Int) (G Int) (H Int) (I Int) (J Int) (K Int) (L Int) (M Int) ) 
    (=>
      (and
        (INV1 H G C D J K)
        (and (= L M)
     (not (= J 0))
     (= G (+ (- 1) B))
     (= E 0)
     (>= (+ (* 10 A) (* (- 1) H)) (- 9))
     (>= (+ (* 10 I) (* (- 1) H)) (- 9))
     (>= (+ H (* (- 10) A)) 0)
     (>= (+ H (* (- 10) I)) 0)
     (not (>= I 1))
     (>= H 1)
     (<= C 9999)
     (not (<= C 99))
     (not (<= C 999))
     (not (<= C 9))
     (= D (+ (- 3) F)))
      )
      (INV1 A B C D E F)
    )
  )
)
(assert
  (forall ( (A Int) (B Int) (C Int) (D Int) (E Int) (F Int) (G Int) (H Int) (I Int) (J Int) (K Int) (L Int) (M Int) (N Int) (O Int) (P Int) (Q Int) (R Int) ) 
    (=>
      (and
        (INV1 I G C D O P)
        (and (= D (+ (- 1) F))
     (= G (+ (- 2) B))
     (= Q R)
     (not (= O 0))
     (>= (+ (* 10 A) (* (- 1) H)) (- 9))
     (>= (+ (* 10 H) (* (- 1) I)) (- 9))
     (>= (+ (* 10 N) (* (- 1) I)) (- 9))
     (>= (+ (* 10 M) (* (- 1) I)) (- 9))
     (>= (+ (* 10 L) (* (- 1) I)) (- 9))
     (>= (+ (* 10 K) (* (- 1) L)) (- 9))
     (>= (+ (* 10 J) (* (- 1) I)) (- 9))
     (>= (+ I (* (- 10) H)) 0)
     (>= (+ I (* (- 10) N)) 0)
     (>= (+ I (* (- 10) M)) 0)
     (>= (+ I (* (- 10) L)) 0)
     (>= (+ I (* (- 10) J)) 0)
     (>= (+ M (* (- 10) K)) 0)
     (>= (+ J (* (- 10) A)) 0)
     (>= I 1)
     (>= N 1)
     (not (>= K 1))
     (<= C 99)
     (not (<= C 9))
     (= E 0))
      )
      (INV1 A B C D E F)
    )
  )
)
(assert
  (forall ( (A Int) (B Int) (C Int) (D Int) (E Int) (F Int) (G Int) (H Int) (I Int) (J Int) (K Int) (L Int) (M Int) (N Int) (O Int) (P Int) (Q Int) (R Int) (S Int) (T Int) (U Int) (V Int) (W Int) (X Int) (Y Int) (Z Int) (A1 Int) (B1 Int) (C1 Int) (D1 Int) (E1 Int) (F1 Int) (G1 Int) (H1 Int) (I1 Int) (J1 Int) (K1 Int) ) 
    (=>
      (and
        (INV1 K G C D H1 I1)
        (and (= E 0)
     (= D (+ (- 1) F))
     (= J1 K1)
     (not (= H1 0))
     (>= (+ (* 10 A) (* (- 1) H)) (- 9))
     (>= (+ (* 10 I) (* (- 1) J)) (- 9))
     (>= (+ (* 10 H) (* (- 1) I)) (- 9))
     (>= (+ (* 10 Y) (* (- 1) K)) (- 9))
     (>= (+ (* 10 X) (* (- 1) Y)) (- 9))
     (>= (+ (* 10 W) (* (- 1) X)) (- 9))
     (>= (+ (* 10 V) (* (- 1) K)) (- 9))
     (>= (+ (* 10 U) (* (- 1) K)) (- 9))
     (>= (+ (* 10 T) (* (- 1) U)) (- 9))
     (>= (+ (* 10 S) (* (- 1) K)) (- 9))
     (>= (+ (* 10 R) (* (- 1) K)) (- 9))
     (>= (+ (* 10 Q) (* (- 1) R)) (- 9))
     (>= (+ (* 10 P) (* (- 1) Q)) (- 9))
     (>= (+ (* 10 O) (* (- 1) K)) (- 9))
     (>= (+ (* 10 N) (* (- 1) K)) (- 9))
     (>= (+ (* 10 M) (* (- 1) N)) (- 9))
     (>= (+ (* 10 L) (* (- 1) K)) (- 9))
     (>= (+ (* 10 J) (* (- 1) K)) (- 9))
     (>= (+ (* 10 A1) (* (- 1) B1)) (- 9))
     (>= (+ (* 10 Z) (* (- 1) K)) (- 9))
     (>= (+ (* 10 B1) (* (- 1) K)) (- 9))
     (>= (+ (* 10 G1) (* (- 1) K)) (- 9))
     (>= (+ (* 10 F1) (* (- 1) K)) (- 9))
     (>= (+ (* 10 E1) (* (- 1) K)) (- 9))
     (>= (+ (* 10 D1) (* (- 1) E1)) (- 9))
     (>= (+ (* 10 C1) (* (- 1) K)) (- 9))
     (>= (+ V (* (- 10) T)) 0)
     (>= (+ T (* (- 10) P)) 0)
     (>= (+ S (* (- 10) Q)) 0)
     (>= (+ P (* (- 10) A)) 0)
     (>= (+ O (* (- 10) M)) 0)
     (>= (+ M (* (- 10) H)) 0)
     (>= (+ L (* (- 10) I)) 0)
     (>= (+ K (* (- 10) Y)) 0)
     (>= (+ K (* (- 10) V)) 0)
     (>= (+ K (* (- 10) U)) 0)
     (>= (+ K (* (- 10) S)) 0)
     (>= (+ K (* (- 10) R)) 0)
     (>= (+ K (* (- 10) O)) 0)
     (>= (+ K (* (- 10) N)) 0)
     (>= (+ K (* (- 10) L)) 0)
     (>= (+ K (* (- 10) J)) 0)
     (>= (+ K (* (- 10) Z)) 0)
     (>= (+ K (* (- 10) B1)) 0)
     (>= (+ K (* (- 10) G1)) 0)
     (>= (+ K (* (- 10) F1)) 0)
     (>= (+ K (* (- 10) E1)) 0)
     (>= (+ K (* (- 10) C1)) 0)
     (>= (+ A1 (* (- 10) W)) 0)
     (>= (+ Z (* (- 10) X)) 0)
     (>= (+ F1 (* (- 10) D1)) 0)
     (>= (+ C1 (* (- 10) A1)) 0)
     (>= W 1)
     (>= K 1)
     (>= G1 1)
     (>= D1 1)
     (<= C 99)
     (not (<= C 9))
     (= G (+ (- 4) B)))
      )
      (INV1 A B C D E F)
    )
  )
)
(assert
  (forall ( (A Int) (B Int) (C Int) (D Int) (E Int) (F Int) (G Int) (H Int) (I Int) (J Int) (K Int) (L Int) (M Int) (N Int) (O Int) (P Int) (Q Int) (R Int) (S Int) (T Int) (U Int) (V Int) (W Int) (X Int) (Y Int) (Z Int) (A1 Int) (B1 Int) (C1 Int) ) 
    (=>
      (and
        (INV1 J G C D Z A1)
        (and (= E 0)
     (= D (+ (- 1) F))
     (= B1 C1)
     (not (= Z 0))
     (>= (+ (* 10 A) (* (- 1) H)) (- 9))
     (>= (+ (* 10 Q) (* (- 1) J)) (- 9))
     (>= (+ (* 10 P) (* (- 1) Q)) (- 9))
     (>= (+ (* 10 O) (* (- 1) P)) (- 9))
     (>= (+ (* 10 N) (* (- 1) J)) (- 9))
     (>= (+ (* 10 M) (* (- 1) J)) (- 9))
     (>= (+ (* 10 L) (* (- 1) M)) (- 9))
     (>= (+ (* 10 K) (* (- 1) J)) (- 9))
     (>= (+ (* 10 I) (* (- 1) J)) (- 9))
     (>= (+ (* 10 H) (* (- 1) I)) (- 9))
     (>= (+ (* 10 S) (* (- 1) T)) (- 9))
     (>= (+ (* 10 R) (* (- 1) J)) (- 9))
     (>= (+ (* 10 T) (* (- 1) J)) (- 9))
     (>= (+ (* 10 Y) (* (- 1) J)) (- 9))
     (>= (+ (* 10 X) (* (- 1) J)) (- 9))
     (>= (+ (* 10 W) (* (- 1) J)) (- 9))
     (>= (+ (* 10 V) (* (- 1) W)) (- 9))
     (>= (+ (* 10 U) (* (- 1) J)) (- 9))
     (>= (+ N (* (- 10) L)) 0)
     (>= (+ L (* (- 10) A)) 0)
     (>= (+ K (* (- 10) H)) 0)
     (>= (+ J (* (- 10) Q)) 0)
     (>= (+ J (* (- 10) N)) 0)
     (>= (+ J (* (- 10) M)) 0)
     (>= (+ J (* (- 10) K)) 0)
     (>= (+ J (* (- 10) I)) 0)
     (>= (+ J (* (- 10) R)) 0)
     (>= (+ J (* (- 10) T)) 0)
     (>= (+ J (* (- 10) Y)) 0)
     (>= (+ J (* (- 10) X)) 0)
     (>= (+ J (* (- 10) W)) 0)
     (>= (+ J (* (- 10) U)) 0)
     (>= (+ S (* (- 10) O)) 0)
     (>= (+ R (* (- 10) P)) 0)
     (>= (+ X (* (- 10) V)) 0)
     (>= (+ U (* (- 10) S)) 0)
     (not (>= O 1))
     (>= J 1)
     (>= Y 1)
     (>= V 1)
     (<= C 99)
     (not (<= C 9))
     (= G (+ (- 3) B)))
      )
      (INV1 A B C D E F)
    )
  )
)
(assert
  (forall ( (A Int) (B Int) (C Int) (D Int) (E Int) (F Int) (G Int) (H Int) (I Int) (J Int) (K Int) (L Int) (M Int) ) 
    (=>
      (and
        (INV1 H G C D J K)
        (and (= L M)
     (not (= J 0))
     (= G (+ (- 1) B))
     (= E 0)
     (>= (+ (* 10 A) (* (- 1) H)) (- 9))
     (>= (+ (* 10 I) (* (- 1) H)) (- 9))
     (>= (+ H (* (- 10) A)) 0)
     (>= (+ H (* (- 10) I)) 0)
     (not (>= I 1))
     (>= H 1)
     (<= C 99)
     (not (<= C 9))
     (= D (+ (- 1) F)))
      )
      (INV1 A B C D E F)
    )
  )
)
(assert
  (forall ( (A Int) (B Int) (C Int) (D Int) (E Int) (F Int) (G Int) (H Int) (I Int) (J Int) (K Int) ) 
    (=>
      (and
        (INV1 H G C D E F)
        (and (= G (+ (- 1) B))
     (= E 0)
     (>= (+ (* 10 A) (* (- 1) H)) (- 9))
     (>= (+ (* 10 I) (* (- 1) H)) (- 9))
     (>= (+ H (* (- 10) A)) 0)
     (>= (+ H (* (- 10) I)) 0)
     (not (>= I 1))
     (>= H 1)
     (= J K))
      )
      (INV1 A B C D E F)
    )
  )
)
(assert
  (forall ( (A Int) (B Int) (C Int) (D Int) (E Int) (F Int) (G Int) (H Int) (I Int) (J Int) (K Int) (L Int) (M Int) (N Int) (O Int) (P Int) (Q Int) (R Int) (S Int) (T Int) (U Int) (V Int) (W Int) (X Int) (Y Int) (Z Int) (A1 Int) ) 
    (=>
      (and
        (INV1 J G C D E F)
        (and (= E 0)
     (= Z A1)
     (>= (+ (* 10 O) (* (- 1) P)) (- 9))
     (>= (+ (* 10 N) (* (- 1) J)) (- 9))
     (>= (+ (* 10 M) (* (- 1) J)) (- 9))
     (>= (+ (* 10 L) (* (- 1) M)) (- 9))
     (>= (+ (* 10 K) (* (- 1) J)) (- 9))
     (>= (+ (* 10 I) (* (- 1) J)) (- 9))
     (>= (+ (* 10 H) (* (- 1) I)) (- 9))
     (>= (+ (* 10 A) (* (- 1) H)) (- 9))
     (>= (+ (* 10 Q) (* (- 1) J)) (- 9))
     (>= (+ (* 10 P) (* (- 1) Q)) (- 9))
     (>= (+ (* 10 R) (* (- 1) J)) (- 9))
     (>= (+ (* 10 Y) (* (- 1) J)) (- 9))
     (>= (+ (* 10 X) (* (- 1) J)) (- 9))
     (>= (+ (* 10 W) (* (- 1) J)) (- 9))
     (>= (+ (* 10 V) (* (- 1) W)) (- 9))
     (>= (+ (* 10 U) (* (- 1) J)) (- 9))
     (>= (+ (* 10 T) (* (- 1) J)) (- 9))
     (>= (+ (* 10 S) (* (- 1) T)) (- 9))
     (>= (+ N (* (- 10) L)) 0)
     (>= (+ L (* (- 10) A)) 0)
     (>= (+ K (* (- 10) H)) 0)
     (>= (+ J (* (- 10) N)) 0)
     (>= (+ J (* (- 10) M)) 0)
     (>= (+ J (* (- 10) K)) 0)
     (>= (+ J (* (- 10) I)) 0)
     (>= (+ J (* (- 10) Q)) 0)
     (>= (+ J (* (- 10) R)) 0)
     (>= (+ J (* (- 10) Y)) 0)
     (>= (+ J (* (- 10) X)) 0)
     (>= (+ J (* (- 10) W)) 0)
     (>= (+ J (* (- 10) U)) 0)
     (>= (+ J (* (- 10) T)) 0)
     (>= (+ R (* (- 10) P)) 0)
     (>= (+ X (* (- 10) V)) 0)
     (>= (+ U (* (- 10) S)) 0)
     (>= (+ S (* (- 10) O)) 0)
     (not (>= O 1))
     (>= J 1)
     (>= Y 1)
     (>= V 1)
     (= G (+ (- 3) B)))
      )
      (INV1 A B C D E F)
    )
  )
)
(assert
  (forall ( (A Int) (B Int) (C Int) (D Int) (E Int) (F Int) (G Int) (H Int) (I Int) (J Int) (K Int) (L Int) (M Int) (N Int) (O Int) (P Int) (Q Int) (R Int) (S Int) (T Int) (U Int) (V Int) (W Int) (X Int) (Y Int) (Z Int) (A1 Int) (B1 Int) (C1 Int) (D1 Int) (E1 Int) (F1 Int) (G1 Int) (H1 Int) (I1 Int) ) 
    (=>
      (and
        (INV1 K G C D E F)
        (and (= E 0)
     (= H1 I1)
     (>= (+ (* 10 A) (* (- 1) H)) (- 9))
     (>= (+ (* 10 W) (* (- 1) X)) (- 9))
     (>= (+ (* 10 V) (* (- 1) K)) (- 9))
     (>= (+ (* 10 U) (* (- 1) K)) (- 9))
     (>= (+ (* 10 T) (* (- 1) U)) (- 9))
     (>= (+ (* 10 S) (* (- 1) K)) (- 9))
     (>= (+ (* 10 R) (* (- 1) K)) (- 9))
     (>= (+ (* 10 Q) (* (- 1) R)) (- 9))
     (>= (+ (* 10 P) (* (- 1) Q)) (- 9))
     (>= (+ (* 10 O) (* (- 1) K)) (- 9))
     (>= (+ (* 10 N) (* (- 1) K)) (- 9))
     (>= (+ (* 10 M) (* (- 1) N)) (- 9))
     (>= (+ (* 10 L) (* (- 1) K)) (- 9))
     (>= (+ (* 10 J) (* (- 1) K)) (- 9))
     (>= (+ (* 10 I) (* (- 1) J)) (- 9))
     (>= (+ (* 10 H) (* (- 1) I)) (- 9))
     (>= (+ (* 10 Y) (* (- 1) K)) (- 9))
     (>= (+ (* 10 X) (* (- 1) Y)) (- 9))
     (>= (+ (* 10 Z) (* (- 1) K)) (- 9))
     (>= (+ (* 10 G1) (* (- 1) K)) (- 9))
     (>= (+ (* 10 F1) (* (- 1) K)) (- 9))
     (>= (+ (* 10 E1) (* (- 1) K)) (- 9))
     (>= (+ (* 10 D1) (* (- 1) E1)) (- 9))
     (>= (+ (* 10 C1) (* (- 1) K)) (- 9))
     (>= (+ (* 10 B1) (* (- 1) K)) (- 9))
     (>= (+ (* 10 A1) (* (- 1) B1)) (- 9))
     (>= (+ V (* (- 10) T)) 0)
     (>= (+ T (* (- 10) P)) 0)
     (>= (+ S (* (- 10) Q)) 0)
     (>= (+ P (* (- 10) A)) 0)
     (>= (+ O (* (- 10) M)) 0)
     (>= (+ M (* (- 10) H)) 0)
     (>= (+ L (* (- 10) I)) 0)
     (>= (+ K (* (- 10) V)) 0)
     (>= (+ K (* (- 10) U)) 0)
     (>= (+ K (* (- 10) S)) 0)
     (>= (+ K (* (- 10) R)) 0)
     (>= (+ K (* (- 10) O)) 0)
     (>= (+ K (* (- 10) N)) 0)
     (>= (+ K (* (- 10) L)) 0)
     (>= (+ K (* (- 10) J)) 0)
     (>= (+ K (* (- 10) Y)) 0)
     (>= (+ K (* (- 10) Z)) 0)
     (>= (+ K (* (- 10) G1)) 0)
     (>= (+ K (* (- 10) F1)) 0)
     (>= (+ K (* (- 10) E1)) 0)
     (>= (+ K (* (- 10) C1)) 0)
     (>= (+ K (* (- 10) B1)) 0)
     (>= (+ Z (* (- 10) X)) 0)
     (>= (+ F1 (* (- 10) D1)) 0)
     (>= (+ C1 (* (- 10) A1)) 0)
     (>= (+ A1 (* (- 10) W)) 0)
     (>= W 1)
     (>= K 1)
     (>= G1 1)
     (>= D1 1)
     (= G (+ (- 4) B)))
      )
      (INV1 A B C D E F)
    )
  )
)
(assert
  (forall ( (A Int) (B Int) (C Int) (D Int) (E Int) (F Int) (G Int) (H Int) (I Int) (J Int) (K Int) (L Int) (M Int) (N Int) (O Int) (P Int) ) 
    (=>
      (and
        (INV1 I G C D E F)
        (and (= G (+ (- 2) B))
     (= O P)
     (>= (+ (* 10 A) (* (- 1) H)) (- 9))
     (>= (+ (* 10 N) (* (- 1) I)) (- 9))
     (>= (+ (* 10 M) (* (- 1) I)) (- 9))
     (>= (+ (* 10 L) (* (- 1) I)) (- 9))
     (>= (+ (* 10 K) (* (- 1) L)) (- 9))
     (>= (+ (* 10 J) (* (- 1) I)) (- 9))
     (>= (+ (* 10 H) (* (- 1) I)) (- 9))
     (>= (+ M (* (- 10) K)) 0)
     (>= (+ J (* (- 10) A)) 0)
     (>= (+ I (* (- 10) N)) 0)
     (>= (+ I (* (- 10) M)) 0)
     (>= (+ I (* (- 10) L)) 0)
     (>= (+ I (* (- 10) J)) 0)
     (>= (+ I (* (- 10) H)) 0)
     (>= N 1)
     (not (>= K 1))
     (>= I 1)
     (= E 0))
      )
      (INV1 A B C D E F)
    )
  )
)
(assert
  (forall ( (A Int) (B Int) (C Int) (D Int) (E Int) (F Int) (G Int) ) 
    (=>
      (and
        (and (= F (- 1))
     (= E 1)
     (= D 1)
     (= B 1)
     (>= (+ (* 10 A) (* (- 1) G)) (- 9))
     (>= (+ G (* (- 10) A)) 0)
     (= G C))
      )
      (INV1 A B C D E F)
    )
  )
)
(assert
  (forall ( (A Int) (B Int) (C Int) (D Int) (E Int) (F Int) (G Int) (H Int) ) 
    (=>
      (and
        (INV1 C A E F D B)
        (and (= D 0) (not (= A B)) (not (>= C 1)) (= G H))
      )
      false
    )
  )
)

(check-sat)
(exit)
